c A SAT instance generated from a 3-CNF formula that had 12 clauses and 6 variables
p cnf 6 12
-3 5 4 0
-6 -4 3 0
-6 4 -2 0
-6 -4 5 0
6 -5 -2 0
3 5 1 0
1 6 4 0
3 -5 1 0
5 -3 4 0
-6 -4 -5 0
-2 -5 -1 0
4 -2 -3 0
